p edge 100 300
e 1 30
e 1 40
e 1 96
e 2 24
e 2 35
e 2 71
e 3 68
e 3 79
e 3 92
e 4 2
e 4 39
e 4 98
e 5 3
e 5 18
e 5 94
e 6 2
e 6 53
e 6 93
e 7 2
e 7 57
e 7 71
e 8 31
e 8 81
e 8 87
e 9 26
e 9 42
e 9 66
e 10 7
e 10 45
e 10 90
e 11 20
e 11 41
e 11 97
e 12 30
e 12 32
e 12 35
e 13 18
e 13 60
e 13 98
e 14 72
e 14 82
e 14 98
e 15 10
e 15 47
e 15 76
e 16 28
e 16 59
e 16 68
e 17 57
e 17 88
e 17 98
e 18 23
e 18 54
e 18 87
e 19 7
e 19 66
e 19 80
e 20 25
e 20 78
e 20 84
e 21 29
e 21 50
e 21 72
e 22 30
e 22 33
e 22 40
e 23 1
e 23 4
e 23 20
e 24 29
e 24 69
e 24 71
e 25 9
e 25 16
e 25 96
e 26 3
e 26 41
e 26 50
e 27 24
e 27 58
e 27 97
e 28 19
e 28 46
e 28 62
e 29 47
e 29 52
e 29 82
e 30 22
e 30 56
e 30 90
e 31 69
e 31 80
e 31 89
e 32 29
e 32 65
e 32 74
e 33 42
e 33 51
e 33 51
e 34 1
e 34 8
e 34 94
e 35 25
e 35 54
e 35 65
e 36 15
e 36 18
e 36 88
e 37 16
e 37 44
e 37 57
e 38 28
e 38 46
e 38 92
e 39 43
e 39 60
e 39 66
e 40 33
e 40 37
e 40 87
e 41 12
e 41 38
e 41 52
e 42 29
e 42 55
e 42 76
e 43 8
e 43 15
e 43 75
e 44 17
e 44 22
e 44 59
e 45 30
e 45 86
e 45 96
e 46 36
e 46 38
e 46 57
e 47 19
e 47 25
e 47 94
e 48 29
e 48 38
e 48 44
e 49 12
e 49 13
e 49 29
e 50 30
e 50 75
e 50 77
e 51 5
e 51 44
e 51 83
e 52 14
e 52 64
e 52 77
e 53 7
e 53 39
e 53 73
e 54 5
e 54 41
e 54 45
e 55 19
e 55 29
e 55 41
e 56 22
e 56 70
e 56 89
e 57 18
e 57 18
e 57 91
e 58 25
e 58 76
e 58 97
e 59 44
e 59 71
e 59 100
e 60 32
e 60 84
e 60 91
e 61 53
e 61 73
e 61 100
e 62 26
e 62 27
e 62 45
e 63 6
e 63 49
e 63 91
e 64 40
e 64 55
e 64 95
e 65 70
e 65 72
e 65 87
e 66 33
e 66 43
e 66 83
e 67 11
e 67 65
e 67 98
e 68 8
e 68 48
e 68 56
e 69 5
e 69 20
e 69 49
e 70 12
e 70 23
e 70 68
e 71 29
e 71 34
e 71 100
e 72 28
e 72 44
e 72 47
e 73 41
e 73 69
e 73 99
e 74 12
e 74 23
e 74 52
e 75 6
e 75 9
e 75 11
e 76 2
e 76 10
e 76 62
e 77 31
e 77 79
e 77 89
e 78 6
e 78 21
e 78 70
e 79 37
e 79 45
e 79 63
e 80 23
e 80 27
e 80 44
e 81 9
e 81 66
e 81 85
e 82 5
e 82 17
e 82 83
e 83 25
e 83 56
e 83 59
e 84 19
e 84 38
e 84 63
e 85 1
e 85 25
e 85 37
e 86 37
e 86 53
e 86 81
e 87 64
e 87 80
e 87 100
e 88 51
e 88 67
e 88 69
e 89 14
e 89 72
e 89 74
e 90 32
e 90 82
e 90 93
e 91 6
e 91 31
e 91 34
e 92 61
e 92 61
e 92 95
e 93 21
e 93 64
e 93 100
e 94 66
e 94 82
e 94 100
e 95 60
e 95 84
e 95 97
e 96 14
e 96 74
e 96 79
e 97 42
e 97 69
e 97 91
e 98 27
e 98 36
e 98 96
e 99 65
e 99 67
e 99 85
e 100 4
e 100 41
e 100 91
